NAME : Unnamed.365.tour
COMMENT : Length = 365
COMMENT : Found by LKH [Keld Helsgaun] Thu Oct 02 13:46:53 2014
TYPE : TOUR
DIMENSION : 22
TOUR_SECTION
1
3
8
2
5
20
4
7
6
12
17
15
18
13
14
16
21
9
11
19
10
22
-1
EOF
